
Gurobi 11.0.1 (win64) logging started Wed Jan 22 13:23:10 2025

Set parameter LogFile to value "C:\Users\Malte\git\owp_milp_optimization\src\solverlogs\gurobi_log.txt"
Gurobi Optimizer version 11.0.1 build v11.0.1rc0 (win64 - Windows 11.0 (22631.2))

CPU model: Intel(R) Core(TM) Ultra 7 155H, instruction set [SSE2|AVX|AVX2]
Thread count: 16 physical cores, 22 logical processors, using up to 22 threads

Optimize a model with 131401 rows, 148921 columns and 315360 nonzeros
Model fingerprint: 0xd0e57a54
Variable types: 131401 continuous, 17520 integer (17520 binary)
Coefficient statistics:
  Matrix range     [1e-01, 4e+02]
  Objective range  [1e-02, 9e+07]
  Bounds range     [1e+00, 1e+04]
  RHS range        [4e+00, 4e+02]
Presolve removed 87605 rows and 96368 columns
Presolve time: 0.46s
Presolved: 43796 rows, 52553 columns, 140143 nonzeros
Variable types: 35033 continuous, 17520 integer (17520 binary)
Deterministic concurrent LP optimizer: primal and dual simplex
Showing primal log only...

Concurrent spin time: 0.00s

Solved with dual simplex

Root relaxation: objective -8.910722e+07, 24616 iterations, 0.32 seconds (0.24 work units)

    Nodes    |    Current Node    |     Objective Bounds      |     Work
 Expl Unexpl |  Obj  Depth IntInf | Incumbent    BestBd   Gap | It/Node Time

     0     0 -8.911e+07    0   24          - -8.911e+07      -     -    1s
H    0     0                    -6.22878e+07 -8.911e+07  43.1%     -    1s
     0     0 -8.911e+07    0   17 -6.229e+07 -8.911e+07  43.1%     -    1s
     0     0 -8.911e+07    0   17 -6.229e+07 -8.911e+07  43.1%     -    1s
H    0     0                    -6.38182e+07 -8.911e+07  39.6%     -    2s
     0     0 -8.911e+07    0   18 -6.382e+07 -8.911e+07  39.6%     -    2s
     0     0 -8.911e+07    0   13 -6.382e+07 -8.911e+07  39.6%     -    2s
H    0     0                    -8.91047e+07 -8.911e+07  0.00%     -    2s

Cutting planes:
  Gomory: 19
  MIR: 28
  Flow cover: 28

Explored 1 nodes (28511 simplex iterations) in 2.92 seconds (1.62 work units)
Thread count was 22 (of 22 available processors)

Solution count 3: -8.91047e+07 -6.38182e+07 -6.22878e+07 

Optimal solution found (tolerance 2.00e-02)
Best objective -8.910473075459e+07, best bound -8.910703698869e+07, gap 0.0026%
